\ Model Assignment_2b
\ LP format - for model browsing. Use MPS format to capture full model detail.
Minimize
  10000 x[0] + 16.1245154965971 x[1] + 15.13274595042156 x[2] + 19 x[3]
   + 18.11077027627483 x[4] + 20.09975124224178 x[5]
   + 1.414213562373095 x[6] + 16.1245154965971 x[0] + 10000 x[1] + x[2]
   + 3.605551275463989 x[3] + 4.47213595499958 x[4]
   + 5.656854249492381 x[5] + 15.03329637837291 x[6]
   + 15.13274595042156 x[0] + x[1] + 10000 x[2] + 4.47213595499958 x[3]
   + 5 x[4] + 6.403124237432849 x[5] + 14.0356688476182 x[6] + 19 x[0]
   + 3.605551275463989 x[1] + 4.47213595499958 x[2] + 10000 x[3]
   + 2.23606797749979 x[4] + 2.23606797749979 x[5] + 18.02775637731995 x[6]
   + 18.11077027627483 x[0] + 4.47213595499958 x[1] + 5 x[2]
   + 2.23606797749979 x[3] + 10000 x[4] + 2 x[5] + 17.26267650163207 x[6]
   + 20.09975124224178 x[0] + 5.656854249492381 x[1]
   + 6.403124237432849 x[2] + 2.23606797749979 x[3] + 2 x[4] + 10000 x[5]
   + 19.23538406167134 x[6] + 1.414213562373095 x[0]
   + 15.03329637837291 x[1] + 14.0356688476182 x[2]
   + 18.02775637731995 x[3] + 17.26267650163207 x[4]
   + 19.23538406167134 x[5] + 10000 x[6] + 0 u[0,6]
Subject To
 R0: x[1] + x[1] + x[1] + x[1] + x[1] + x[1] + x[1] = 1
 R1: x[0] + x[1] + x[2] + x[3] + x[4] + x[5] + x[6] = 1
 R2: x[2] + x[2] + x[2] + x[2] + x[2] + x[2] + x[2] = 1
 R3: x[0] + x[1] + x[2] + x[3] + x[4] + x[5] + x[6] = 1
 R4: x[3] + x[3] + x[3] + x[3] + x[3] + x[3] + x[3] = 1
 R5: x[0] + x[1] + x[2] + x[3] + x[4] + x[5] + x[6] = 1
 R6: x[4] + x[4] + x[4] + x[4] + x[4] + x[4] + x[4] = 1
 R7: x[0] + x[1] + x[2] + x[3] + x[4] + x[5] + x[6] = 1
 R8: x[5] + x[5] + x[5] + x[5] + x[5] + x[5] + x[5] = 1
 R9: x[0] + x[1] + x[2] + x[3] + x[4] + x[5] + x[6] = 1
 R10: x[6] + x[6] + x[6] + x[6] + x[6] + x[6] + x[6] = 1
 R11: x[0] + x[1] + x[2] + x[3] + x[4] + x[5] + x[6] = 1
 R12: x[0] + x[0] + x[0] + x[0] + x[0] + x[0] + x[0] = 1
 R13: x[0] + x[1] + x[2] + x[3] + x[4] + x[5] + x[6] = 1
 R14: x[2] + x[2] + x[2] + x[2] + x[2] + x[2] + x[2] = 1
 R15: x[0] + x[1] + x[2] + x[3] + x[4] + x[5] + x[6] = 1
 R16: x[3] + x[3] + x[3] + x[3] + x[3] + x[3] + x[3] = 1
 R17: x[0] + x[1] + x[2] + x[3] + x[4] + x[5] + x[6] = 1
 R18: x[4] + x[4] + x[4] + x[4] + x[4] + x[4] + x[4] = 1
 R19: x[0] + x[1] + x[2] + x[3] + x[4] + x[5] + x[6] = 1
 R20: x[5] + x[5] + x[5] + x[5] + x[5] + x[5] + x[5] = 1
 R21: x[0] + x[1] + x[2] + x[3] + x[4] + x[5] + x[6] = 1
 R22: x[6] + x[6] + x[6] + x[6] + x[6] + x[6] + x[6] = 1
 R23: x[0] + x[1] + x[2] + x[3] + x[4] + x[5] + x[6] = 1
 R24: x[0] + x[0] + x[0] + x[0] + x[0] + x[0] + x[0] = 1
 R25: x[0] + x[1] + x[2] + x[3] + x[4] + x[5] + x[6] = 1
 R26: x[1] + x[1] + x[1] + x[1] + x[1] + x[1] + x[1] = 1
 R27: x[0] + x[1] + x[2] + x[3] + x[4] + x[5] + x[6] = 1
 R28: x[3] + x[3] + x[3] + x[3] + x[3] + x[3] + x[3] = 1
 R29: x[0] + x[1] + x[2] + x[3] + x[4] + x[5] + x[6] = 1
 R30: x[4] + x[4] + x[4] + x[4] + x[4] + x[4] + x[4] = 1
 R31: x[0] + x[1] + x[2] + x[3] + x[4] + x[5] + x[6] = 1
 R32: x[5] + x[5] + x[5] + x[5] + x[5] + x[5] + x[5] = 1
 R33: x[0] + x[1] + x[2] + x[3] + x[4] + x[5] + x[6] = 1
 R34: x[6] + x[6] + x[6] + x[6] + x[6] + x[6] + x[6] = 1
 R35: x[0] + x[1] + x[2] + x[3] + x[4] + x[5] + x[6] = 1
 R36: x[0] + x[0] + x[0] + x[0] + x[0] + x[0] + x[0] = 1
 R37: x[0] + x[1] + x[2] + x[3] + x[4] + x[5] + x[6] = 1
 R38: x[1] + x[1] + x[1] + x[1] + x[1] + x[1] + x[1] = 1
 R39: x[0] + x[1] + x[2] + x[3] + x[4] + x[5] + x[6] = 1
 R40: x[2] + x[2] + x[2] + x[2] + x[2] + x[2] + x[2] = 1
 R41: x[0] + x[1] + x[2] + x[3] + x[4] + x[5] + x[6] = 1
 R42: x[4] + x[4] + x[4] + x[4] + x[4] + x[4] + x[4] = 1
 R43: x[0] + x[1] + x[2] + x[3] + x[4] + x[5] + x[6] = 1
 R44: x[5] + x[5] + x[5] + x[5] + x[5] + x[5] + x[5] = 1
 R45: x[0] + x[1] + x[2] + x[3] + x[4] + x[5] + x[6] = 1
 R46: x[6] + x[6] + x[6] + x[6] + x[6] + x[6] + x[6] = 1
 R47: x[0] + x[1] + x[2] + x[3] + x[4] + x[5] + x[6] = 1
 R48: x[0] + x[0] + x[0] + x[0] + x[0] + x[0] + x[0] = 1
 R49: x[0] + x[1] + x[2] + x[3] + x[4] + x[5] + x[6] = 1
 R50: x[1] + x[1] + x[1] + x[1] + x[1] + x[1] + x[1] = 1
 R51: x[0] + x[1] + x[2] + x[3] + x[4] + x[5] + x[6] = 1
 R52: x[2] + x[2] + x[2] + x[2] + x[2] + x[2] + x[2] = 1
 R53: x[0] + x[1] + x[2] + x[3] + x[4] + x[5] + x[6] = 1
 R54: x[3] + x[3] + x[3] + x[3] + x[3] + x[3] + x[3] = 1
 R55: x[0] + x[1] + x[2] + x[3] + x[4] + x[5] + x[6] = 1
 R56: x[5] + x[5] + x[5] + x[5] + x[5] + x[5] + x[5] = 1
 R57: x[0] + x[1] + x[2] + x[3] + x[4] + x[5] + x[6] = 1
 R58: x[6] + x[6] + x[6] + x[6] + x[6] + x[6] + x[6] = 1
 R59: x[0] + x[1] + x[2] + x[3] + x[4] + x[5] + x[6] = 1
 R60: x[0] + x[0] + x[0] + x[0] + x[0] + x[0] + x[0] = 1
 R61: x[0] + x[1] + x[2] + x[3] + x[4] + x[5] + x[6] = 1
 R62: x[1] + x[1] + x[1] + x[1] + x[1] + x[1] + x[1] = 1
 R63: x[0] + x[1] + x[2] + x[3] + x[4] + x[5] + x[6] = 1
 R64: x[2] + x[2] + x[2] + x[2] + x[2] + x[2] + x[2] = 1
 R65: x[0] + x[1] + x[2] + x[3] + x[4] + x[5] + x[6] = 1
 R66: x[3] + x[3] + x[3] + x[3] + x[3] + x[3] + x[3] = 1
 R67: x[0] + x[1] + x[2] + x[3] + x[4] + x[5] + x[6] = 1
 R68: x[4] + x[4] + x[4] + x[4] + x[4] + x[4] + x[4] = 1
 R69: x[0] + x[1] + x[2] + x[3] + x[4] + x[5] + x[6] = 1
 R70: x[6] + x[6] + x[6] + x[6] + x[6] + x[6] + x[6] = 1
 R71: x[0] + x[1] + x[2] + x[3] + x[4] + x[5] + x[6] = 1
 R72: x[0] + x[0] + x[0] + x[0] + x[0] + x[0] + x[0] = 1
 R73: x[0] + x[1] + x[2] + x[3] + x[4] + x[5] + x[6] = 1
 R74: x[1] + x[1] + x[1] + x[1] + x[1] + x[1] + x[1] = 1
 R75: x[0] + x[1] + x[2] + x[3] + x[4] + x[5] + x[6] = 1
 R76: x[2] + x[2] + x[2] + x[2] + x[2] + x[2] + x[2] = 1
 R77: x[0] + x[1] + x[2] + x[3] + x[4] + x[5] + x[6] = 1
 R78: x[3] + x[3] + x[3] + x[3] + x[3] + x[3] + x[3] = 1
 R79: x[0] + x[1] + x[2] + x[3] + x[4] + x[5] + x[6] = 1
 R80: x[4] + x[4] + x[4] + x[4] + x[4] + x[4] + x[4] = 1
 R81: x[0] + x[1] + x[2] + x[3] + x[4] + x[5] + x[6] = 1
 R82: x[5] + x[5] + x[5] + x[5] + x[5] + x[5] + x[5] = 1
 R83: x[0] + x[1] + x[2] + x[3] + x[4] + x[5] + x[6] = 1
 R84: 7 x[2] + u[1,6] - u[2,6] <= 6
 R85: u[1,6] >= 2
 R86: u[1,6] <= 7
 R87: 7 x[3] + u[1,6] - u[3,6] <= 6
 R88: u[1,6] >= 2
 R89: u[1,6] <= 7
 R90: 7 x[4] + u[1,6] - u[4,6] <= 6
 R91: u[1,6] >= 2
 R92: u[1,6] <= 7
 R93: 7 x[5] + u[1,6] - u[5,6] <= 6
 R94: u[1,6] >= 2
 R95: u[1,6] <= 7
 R96: 7 x[6] + u[1,6] - u[6,6] <= 6
 R97: u[1,6] >= 2
 R98: u[1,6] <= 7
 R99: 7 x[1] - u[1,6] + u[2,6] <= 6
 R100: u[2,6] >= 2
 R101: u[2,6] <= 7
 R102: 7 x[3] + u[2,6] - u[3,6] <= 6
 R103: u[2,6] >= 2
 R104: u[2,6] <= 7
 R105: 7 x[4] + u[2,6] - u[4,6] <= 6
 R106: u[2,6] >= 2
 R107: u[2,6] <= 7
 R108: 7 x[5] + u[2,6] - u[5,6] <= 6
 R109: u[2,6] >= 2
 R110: u[2,6] <= 7
 R111: 7 x[6] + u[2,6] - u[6,6] <= 6
 R112: u[2,6] >= 2
 R113: u[2,6] <= 7
 R114: 7 x[1] - u[1,6] + u[3,6] <= 6
 R115: u[3,6] >= 2
 R116: u[3,6] <= 7
 R117: 7 x[2] - u[2,6] + u[3,6] <= 6
 R118: u[3,6] >= 2
 R119: u[3,6] <= 7
 R120: 7 x[4] + u[3,6] - u[4,6] <= 6
 R121: u[3,6] >= 2
 R122: u[3,6] <= 7
 R123: 7 x[5] + u[3,6] - u[5,6] <= 6
 R124: u[3,6] >= 2
 R125: u[3,6] <= 7
 R126: 7 x[6] + u[3,6] - u[6,6] <= 6
 R127: u[3,6] >= 2
 R128: u[3,6] <= 7
 R129: 7 x[1] - u[1,6] + u[4,6] <= 6
 R130: u[4,6] >= 2
 R131: u[4,6] <= 7
 R132: 7 x[2] - u[2,6] + u[4,6] <= 6
 R133: u[4,6] >= 2
 R134: u[4,6] <= 7
 R135: 7 x[3] - u[3,6] + u[4,6] <= 6
 R136: u[4,6] >= 2
 R137: u[4,6] <= 7
 R138: 7 x[5] + u[4,6] - u[5,6] <= 6
 R139: u[4,6] >= 2
 R140: u[4,6] <= 7
 R141: 7 x[6] + u[4,6] - u[6,6] <= 6
 R142: u[4,6] >= 2
 R143: u[4,6] <= 7
 R144: 7 x[1] - u[1,6] + u[5,6] <= 6
 R145: u[5,6] >= 2
 R146: u[5,6] <= 7
 R147: 7 x[2] - u[2,6] + u[5,6] <= 6
 R148: u[5,6] >= 2
 R149: u[5,6] <= 7
 R150: 7 x[3] - u[3,6] + u[5,6] <= 6
 R151: u[5,6] >= 2
 R152: u[5,6] <= 7
 R153: 7 x[4] - u[4,6] + u[5,6] <= 6
 R154: u[5,6] >= 2
 R155: u[5,6] <= 7
 R156: 7 x[6] + u[5,6] - u[6,6] <= 6
 R157: u[5,6] >= 2
 R158: u[5,6] <= 7
 R159: 7 x[1] - u[1,6] + u[6,6] <= 6
 R160: u[6,6] >= 2
 R161: u[6,6] <= 7
 R162: 7 x[2] - u[2,6] + u[6,6] <= 6
 R163: u[6,6] >= 2
 R164: u[6,6] <= 7
 R165: 7 x[3] - u[3,6] + u[6,6] <= 6
 R166: u[6,6] >= 2
 R167: u[6,6] <= 7
 R168: 7 x[4] - u[4,6] + u[6,6] <= 6
 R169: u[6,6] >= 2
 R170: u[6,6] <= 7
 R171: 7 x[5] - u[5,6] + u[6,6] <= 6
 R172: u[6,6] >= 2
 R173: u[6,6] <= 7
 R174: t[0,6] >= 0
 R175: t[0,6] <= 1236
 R176: t[1,6] >= 65
 R177: t[1,6] <= 146
 R178: t[2,6] >= 15
 R179: t[2,6] <= 67
 R180: t[3,6] >= 621
 R181: t[3,6] <= 702
 R182: t[4,6] >= 255
 R183: t[4,6] <= 324
 R184: t[5,6] >= 534
 R185: t[5,6] <= 605
 R186: t[6,6] >= 448
 R187: t[6,6] <= 505
 R188: 10000 x[1] + t[0,6] - t[1,6] <= 9983.875484503404
 R189: 10000 x[2] + t[0,6] - t[2,6] <= 9984.867254049579
 R190: 10000 x[3] + t[0,6] - t[3,6] <= 9981
 R191: 10000 x[4] + t[0,6] - t[4,6] <= 9981.889229723725
 R192: 10000 x[5] + t[0,6] - t[5,6] <= 9979.900248757758
 R193: 10000 x[6] + t[0,6] - t[6,6] <= 9998.585786437627
 R194: 10000 x[1] <= -90
 R195: 10000 x[2] + t[1,6] - t[2,6] <= 9909
 R196: 10000 x[3] + t[1,6] - t[3,6] <= 9906.394448724535
 R197: 10000 x[4] + t[1,6] - t[4,6] <= 9905.527864045
 R198: 10000 x[5] + t[1,6] - t[5,6] <= 9904.343145750508
 R199: 10000 x[6] + t[1,6] - t[6,6] <= 9894.966703621627
 R200: 10000 x[1] - t[1,6] + t[2,6] <= 9909
 R201: 10000 x[2] <= -90
 R202: 10000 x[3] + t[2,6] - t[3,6] <= 9905.527864045
 R203: 10000 x[4] + t[2,6] - t[4,6] <= 9905
 R204: 10000 x[5] + t[2,6] - t[5,6] <= 9903.596875762567
 R205: 10000 x[6] + t[2,6] - t[6,6] <= 9895.964331152381
 R206: 10000 x[1] - t[1,6] + t[3,6] <= 9906.394448724535
 R207: 10000 x[2] - t[2,6] + t[3,6] <= 9905.527864045
 R208: 10000 x[3] <= -90
 R209: 10000 x[4] + t[3,6] - t[4,6] <= 9907.763932022501
 R210: 10000 x[5] + t[3,6] - t[5,6] <= 9907.763932022501
 R211: 10000 x[6] + t[3,6] - t[6,6] <= 9891.97224362268
 R212: 10000 x[1] - t[1,6] + t[4,6] <= 9905.527864045
 R213: 10000 x[2] - t[2,6] + t[4,6] <= 9905
 R214: 10000 x[3] - t[3,6] + t[4,6] <= 9907.763932022501
 R215: 10000 x[4] <= -90
 R216: 10000 x[5] + t[4,6] - t[5,6] <= 9908
 R217: 10000 x[6] + t[4,6] - t[6,6] <= 9892.737323498368
 R218: 10000 x[1] - t[1,6] + t[5,6] <= 9904.343145750508
 R219: 10000 x[2] - t[2,6] + t[5,6] <= 9903.596875762567
 R220: 10000 x[3] - t[3,6] + t[5,6] <= 9907.763932022501
 R221: 10000 x[4] - t[4,6] + t[5,6] <= 9908
 R222: 10000 x[5] <= -90
 R223: 10000 x[6] + t[5,6] - t[6,6] <= 9890.764615938329
 R224: 10000 x[1] - t[1,6] + t[6,6] <= 9894.966703621627
 R225: 10000 x[2] - t[2,6] + t[6,6] <= 9895.964331152381
 R226: 10000 x[3] - t[3,6] + t[6,6] <= 9891.97224362268
 R227: 10000 x[4] - t[4,6] + t[6,6] <= 9892.737323498368
 R228: 10000 x[5] - t[5,6] + t[6,6] <= 9890.764615938329
 R229: 10000 x[6] <= -90
Bounds
Binaries
 x[0] x[1] x[2] x[3] x[4] x[5] x[6] x[0] x[1] x[2] x[3] x[4] x[5] x[6] x[0]
 x[1] x[2] x[3] x[4] x[5] x[6] x[0] x[1] x[2] x[3] x[4] x[5] x[6] x[0] x[1]
 x[2] x[3] x[4] x[5] x[6] x[0] x[1] x[2] x[3] x[4] x[5] x[6] x[0] x[1] x[2]
 x[3] x[4] x[5] x[6]
End
